0000000000000000
0011111000000000
0000000110000000
0000000001000000
0000000000100000
0000000000100000
0000000000010000
0000000000010000
0000000000010000
0000000000010000
0011100000110000
0000011111000000
0000000000000000
0000000000000000
0000000000000000
0000000000000000
